NAME: tsp5_24
COMMENT: 5-tsp problem (Padberg/Rinaldi)
TYPE: TSP
DIMENSION: 5
EDGE_WEIGHT_TYPE : EUC_2D
NODE_COORD_SECTION
1.00 22.05 5.74
2.00 8.38 33.80
3.00 37.50 24.70
4.00 24.65 19.68
5.00 0.73 17.50
